RbV2Te2O
1.0
        4.0525000000         0.0000000000         0.0000000000
        0.0000000000         4.0525000000         0.0000000000
        0.0000000000         0.0000000000         8.4336000000
O    V   Te   Rb
1    2    2    1
Direct
     0.000000000         0.000000000         0.000000000
     0.500000000         0.000000000         0.000000000
     0.000000000         0.500000000         0.000000000
     0.500000000         0.500000000         0.150000000
     0.500000000         0.500000000         0.850000000
     0.000000000         0.000000000         0.500000000
